100
37
0	-1	-1	999999
1	86	22	0
2	29	17	1
3	4	50	23
4	25	13	23
5	67	37	5
6	13	7	7
7	62	15	18
8	84	38	12
9	34	3	20
10	19	45	19
11	42	76	19
12	40	86	16
13	25	94	2
14	63	57	26
15	75	24	13
16	61	85	19
17	87	38	17
18	54	39	14
19	66	34	8
20	46	39	10
21	47	17	5
22	21	54	19
23	19	83	12
24	1	82	9
25	94	28	18
26	82	72	4
27	41	59	20
28	100	77	8
29	1	57	3
30	96	7	18
31	57	82	26
32	47	38	21
33	68	89	21
34	16	36	8
35	51	38	19
36	83	74	66
37	84	2	21
